c Source: TUDataset MUTAG, graph #89
c Original: n=13, m=14
c Augmented: +6 edges, n=15 -> m=20, circuit_rank=6
c Augmented to satisfy Eulerian condition (no parallel edges)
p sp 15
e 9 10
e 2 3
e 6 7
e 8 9
e 12 13
e 5 6
e 7 8
e 3 8
e 9 11
e 4 12
e 4 5
e 1 2
e 3 4
e 2 13
e 1 14
e 2 14
e 3 15
e 8 15
e 4 9
e 10 11
